
--- Job DIETER.gms Start 11/21/18 09:40:54 24.7.4 r58773 WEX-WEI x86 64bit/MS Windows
GAMS 24.7.4   Copyright (C) 1987-2016 GAMS Development. All rights reserved
Licensee: Medium MUD - 10 User License                   S170316:1123AO-GEN
          Deutsches Institut fuer Wirtschaftsforschung DIW, AbteilungDC3975
          License for teaching and research at degree granting institutions
          License Admin: Claudia Kemfert, bbibra@diw.de                    
--- Starting compilation
--- DIETER.gms(154) 3 Mb
--- .dataload.gms(405) 3 Mb
--- GDXin=C:\Users\Lenovo\Documents\GitHub\prosumage\Code\Prosumage_Opt\Dieter_Module\Original\Data_input.gdx
--- .dataload.gms(457) 3 Mb
--- GDXin=C:\Users\Lenovo\Documents\GitHub\prosumage\Code\Prosumage_Opt\Dieter_Module\Original\time_series.gdx
--- .dataload.gms(787) 25 Mb
--- DIETER.gms(297) 25 Mb
--- .model.gms(1353) 25 Mb
--- DIETER.gms(476) 25 Mb
--- .fix.gms(329) 25 Mb
--- DIETER.gms(477) 25 Mb
--- .scenario.gms(122) 25 Mb
--- DIETER.gms(636) 25 Mb
--- .report.gms(1411) 25 Mb
--- DIETER.gms(667) 26 Mb
--- Starting execution: elapsed 0:00:00.143
--- DIETER.gms(3223) 214 Mb
---
--- collecting and writing gdx file 
---
--- Generating LP model DIETER
--- DIETER.gms(1353) 234 Mb  23 secs
--- DIETER.gms(1431) 264 Mb  30 secs
--- DIETER.gms(1623) 327 Mb  40 secs
--- DIETER.gms(1649) 329 Mb  4 secs
--- DIETER.gms(1960) 332 Mb  3 secs
--- DIETER.gms(3223) 343 Mb
---   402,996 rows  429,260 columns  1,718,022 non-zeroes
---   131,408 nl-code  96,362 nl-non-zeroes
--- DIETER.gms(3223) 341 Mb
--- Executing CPLEX: elapsed 0:01:50.582

GUSS             24.7.4 r58773 Released Sep 19, 2016 WEI x86 64bit/MS Windows 
Reading parameter(s) from scenario dictionary
>>  Logoption 2
>>  Optfile 1
>>  Skipbasecase 1
--- Scenario Variable with potential updates identified: phi_min_res
--- Scenario Variable with potential updates identified: phi_pro_self

IBM ILOG CPLEX   24.7.4 r58773 Released Sep 19, 2016 WEI x86 64bit/MS Windows 
--- GAMS/Cplex licensed for continuous and discrete problems.
Cplex 12.6.3.0

Reading parameter(s) from "C:\Users\Lenovo\Documents\GitHub\prosumage\Code\Prosumage_Opt\Dieter_Module\Original\cplex.opt"
>>  lpmethod 4
>>  threads 4
>>  epgap 1e-3
Finished reading from "C:\Users\Lenovo\Documents\GitHub\prosumage\Code\Prosumage_Opt\Dieter_Module\Original\cplex.opt"
Reading data...
Starting Cplex...
Space for names approximately 28.28 Mb
Use option 'names no' to turn use of names off
Tried aggregator 1 time.
LP Presolve eliminated 27696 rows and 89397 columns.
Aggregator did 16020 substitutions.
Reduced LP has 359280 rows, 323843 columns, and 1231559 nonzeros.
Presolve time = 1.01 sec. (533.65 ticks)
Parallel mode: using up to 4 threads for barrier.

***NOTE: Found 19 dense columns.

Number of nonzeros in lower triangle of A*A' = 1311523
Using Approximate Minimum Degree ordering
Total time for automatic ordering = 0.45 sec. (159.56 ticks)
Summary statistics for Cholesky factor:
  Threads                   = 4
  Rows in Factor            = 359299
  Integer space required    = 1050658
  Total non-zeros in factor = 4868876
  Total FP ops to factor    = 109262820
 Itn      Primal Obj        Dual Obj  Prim Inf Upper Inf  Dual Inf Inf Ratio
   0  4.6837918e+012 -6.4294889e+012 2.46e+011 4.08e+009 2.53e+010 1.00e+000
   1  3.0875081e+011 -2.2599633e+012 1.00e+010 1.66e+008 9.19e+009 3.82e-008
   2  2.6065949e+011 -4.1959855e+011 7.92e+009 1.32e+008 1.96e+009 1.05e-008
   3  1.9699858e+011 -1.6458106e+011 5.56e+009 9.22e+007 8.89e+008 2.24e-008
   4  3.6497654e+011 -2.7555662e+011 1.07e+010 1.78e+008 1.43e+009 7.27e-009
   5  1.2764066e+011 -1.0714412e+009 2.19e+009 3.63e+007 2.84e+008 1.72e-008
   6  1.2097942e+011  1.0230479e+010 1.94e+009 3.23e+007 2.38e+008 2.05e-008
   7  1.1775164e+011  1.9483774e+010 1.79e+009 2.98e+007 2.06e+008 2.35e-008
   8  7.2896107e+010  4.7822851e+010 2.28e+008 3.78e+006 8.15e+007 7.83e-008
   9  6.9337250e+010  5.0923594e+010 1.87e+008 3.10e+006 3.16e+007 2.13e-007
  10  6.2134008e+010  4.6680022e+010 1.40e+008 2.32e+006 1.84e+007 4.09e-007
  11  5.5313563e+010  4.4930945e+010 9.72e+007 1.61e+006 1.37e+007 5.98e-007
  12  5.1305472e+010  4.4045807e+010 7.33e+007 1.22e+006 1.17e+007 7.45e-007
  13  4.8676378e+010  4.3354039e+010 5.78e+007 9.59e+005 1.01e+007 9.05e-007
  14  4.6615021e+010  4.2708204e+010 4.57e+007 7.59e+005 8.68e+006 1.11e-006
  15  4.4838413e+010  4.2363643e+010 3.56e+007 5.91e+005 7.96e+006 1.25e-006
  16  4.3843087e+010  4.2108190e+010 2.98e+007 4.95e+005 7.40e+006 1.38e-006
  17  4.2994973e+010  4.1608397e+010 2.51e+007 4.16e+005 6.37e+006 1.67e-006
  18  4.2098467e+010  4.1222368e+010 2.01e+007 3.33e+005 5.58e+006 1.98e-006
  19  4.1431330e+010  4.1063225e+010 1.66e+007 2.75e+005 5.28e+006 2.13e-006
  20  4.0939343e+010  4.0838417e+010 1.40e+007 2.32e+005 4.86e+006 2.39e-006
  21  4.0376669e+010  4.0524877e+010 1.12e+007 1.86e+005 4.30e+006 2.81e-006
  22  3.9698828e+010  4.0406473e+010 8.05e+006 1.34e+005 4.10e+006 3.02e-006
  23  3.9571870e+010  4.0171075e+010 7.46e+006 1.24e+005 3.70e+006 3.45e-006
  24  3.9282694e+010  4.0029958e+010 6.24e+006 1.04e+005 3.48e+006 3.74e-006
  25  3.8951309e+010  3.9759680e+010 4.90e+006 8.14e+004 3.07e+006 4.42e-006
  26  3.8686947e+010  3.9682041e+010 3.93e+006 6.52e+004 2.96e+006 4.66e-006
  27  3.8589154e+010  3.9422799e+010 3.58e+006 5.94e+004 2.59e+006 5.55e-006
  28  3.8485215e+010  3.9187646e+010 3.26e+006 5.40e+004 2.28e+006 6.55e-006
  29  3.8192227e+010  3.9012831e+010 2.45e+006 4.06e+004 2.07e+006 7.48e-006
  30  3.8035221e+010  3.8834848e+010 2.04e+006 3.38e+004 1.86e+006 8.62e-006
  31  3.7893301e+010  3.8626670e+010 1.70e+006 2.83e+004 1.63e+006 1.03e-005
  32  3.7787216e+010  3.8530648e+010 1.48e+006 2.46e+004 1.53e+006 1.12e-005
  33  3.7587155e+010  3.8340763e+010 1.08e+006 1.79e+004 1.33e+006 1.35e-005
  34  3.7487075e+010  3.8187313e+010 8.94e+005 1.48e+004 1.18e+006 1.59e-005
  35  3.7419599e+010  3.8036583e+010 7.85e+005 1.30e+004 1.04e+006 1.88e-005
  36  3.7374692e+010  3.7904385e+010 7.20e+005 1.20e+004 9.19e+005 2.20e-005
  37  3.7320940e+010  3.7798780e+010 6.50e+005 1.08e+004 8.30e+005 2.52e-005
  38  3.7298269e+010  3.7656866e+010 6.23e+005 1.03e+004 7.13e+005 3.06e-005
  39  3.7200239e+010  3.7573903e+010 5.14e+005 8.54e+003 6.49e+005 3.47e-005
  40  3.7130824e+010  3.7536260e+010 4.41e+005 7.32e+003 6.21e+005 3.68e-005
  41  3.7105991e+010  3.7479432e+010 4.15e+005 6.88e+003 5.78e+005 4.04e-005
  42  3.7101370e+010  3.7439430e+010 4.10e+005 6.81e+003 5.49e+005 4.32e-005
  43  3.7025666e+010  3.7346684e+010 3.36e+005 5.58e+003 4.82e+005 5.12e-005
  44  3.7001823e+010  3.7325120e+010 3.15e+005 5.22e+003 4.67e+005 5.34e-005
  45  3.6985276e+010  3.7290729e+010 3.00e+005 4.97e+003 4.43e+005 5.72e-005
  46  3.6924711e+010  3.7229010e+010 2.46e+005 4.09e+003 4.00e+005 6.53e-005
  47  3.6871325e+010  3.7126488e+010 2.02e+005 3.36e+003 3.32e+005 8.32e-005
  48  3.6859879e+010  3.7102277e+010 1.94e+005 3.22e+003 3.17e+005 8.83e-005
  49  3.6848137e+010  3.7095852e+010 1.85e+005 3.08e+003 3.13e+005 8.98e-005
  50  3.6804092e+010  3.7083204e+010 1.53e+005 2.55e+003 3.05e+005 9.33e-005
  51  3.6779174e+010  3.6997733e+010 1.35e+005 2.25e+003 2.52e+005 1.20e-004
  52  3.6775653e+010  3.6968373e+010 1.33e+005 2.21e+003 2.35e+005 1.31e-004
  53  3.6728799e+010  3.6956599e+010 1.04e+005 1.73e+003 2.28e+005 1.37e-004
  54  3.6710258e+010  3.6909294e+010 9.23e+004 1.53e+003 2.01e+005 1.62e-004
  55  3.6686302e+010  3.6876024e+010 7.83e+004 1.30e+003 1.82e+005 1.83e-004
  56  3.6683111e+010  3.6858344e+010 7.64e+004 1.27e+003 1.72e+005 1.97e-004
  57  3.6661003e+010  3.6812818e+010 6.44e+004 1.07e+003 1.47e+005 2.41e-004
  58  3.6638898e+010  3.6778305e+010 5.32e+004 8.83e+002 1.29e+005 2.86e-004
  59  3.6637106e+010  3.6766023e+010 5.23e+004 8.68e+002 1.23e+005 3.05e-004
  60  3.6619940e+010  3.6731410e+010 4.42e+004 7.33e+002 1.05e+005 3.72e-004
  61  3.6593590e+010  3.6719559e+010 3.23e+004 5.36e+002 9.89e+004 4.03e-004
  62  3.6588995e+010  3.6662056e+010 3.02e+004 5.02e+002 7.01e+004 6.36e-004
  63  3.6564113e+010  3.6623206e+010 2.07e+004 3.43e+002 5.21e+004 9.34e-004
  64  3.6558394e+010  3.6607121e+010 1.86e+004 3.09e+002 4.50e+004 1.13e-003
  65  3.6543430e+010  3.6594821e+010 1.35e+004 2.24e+002 3.96e+004 1.32e-003
  66  3.6536901e+010  3.6581309e+010 1.12e+004 1.86e+002 3.37e+004 1.62e-003
  67  3.6528187e+010  3.6573103e+010 8.36e+003 1.39e+002 3.02e+004 1.86e-003
  68  3.6527345e+010  3.6568284e+010 8.09e+003 1.34e+002 2.81e+004 2.04e-003
  69  3.6522018e+010  3.6554042e+010 6.39e+003 1.07e+002 2.21e+004 2.77e-003
  70  3.6517934e+010  3.6543518e+010 5.23e+003 8.68e+001 1.78e+004 3.64e-003
  71  3.6512950e+010  3.6537146e+010 3.87e+003 6.42e+001 1.53e+004 4.41e-003
  72  3.6511906e+010  3.6532836e+010 3.59e+003 5.95e+001 1.36e+004 5.10e-003
  73  3.6508281e+010  3.6524665e+010 2.65e+003 4.40e+001 1.04e+004 7.15e-003
  74  3.6506186e+010  3.6521178e+010 2.12e+003 3.56e+001 9.06e+003 8.46e-003
  75  3.6504282e+010  3.6517527e+010 1.74e+003 2.81e+001 7.68e+003 1.04e-002
  76  3.6502365e+010  3.6514850e+010 1.55e+003 2.08e+001 6.68e+003 1.23e-002
  77  3.6501435e+010  3.6514408e+010 1.15e+003 1.73e+001 6.52e+003 1.27e-002
  78  3.6500462e+010  3.6511719e+010 1.04e+003 1.36e+001 5.52e+003 1.56e-002
  79  3.6499511e+010  3.6510760e+010 1.71e+003 1.02e+001 5.17e+003 1.70e-002
  80  3.6499234e+010  3.6509084e+010 1.93e+003 9.27e+000 4.56e+003 1.98e-002
  81  3.6498818e+010  3.6507858e+010 1.59e+003 7.89e+000 4.12e+003 2.25e-002
  82  3.6498583e+010  3.6506600e+010 2.16e+003 7.13e+000 3.66e+003 2.60e-002
  83  3.6498231e+010  3.6505512e+010 1.92e+003 6.07e+000 3.28e+003 2.98e-002
  84  3.6497800e+010  3.6504452e+010 1.64e+003 4.82e+000 2.91e+003 3.45e-002
  85  3.6497631e+010  3.6504049e+010 8.74e+002 4.36e+000 2.77e+003 3.67e-002
  86  3.6497442e+010  3.6503619e+010 1.39e+003 3.82e+000 2.62e+003 3.93e-002
  87  3.6497233e+010  3.6502796e+010 8.46e+002 3.26e+000 2.34e+003 4.52e-002
  88  3.6497016e+010  3.6502063e+010 7.38e+002 2.70e+000 2.09e+003 5.20e-002
  89  3.6496661e+010  3.6501428e+010 4.56e+002 1.83e+000 1.87e+003 5.95e-002
  90  3.6496539e+010  3.6501130e+010 6.23e+002 1.55e+000 1.77e+003 6.37e-002
  91  3.6496168e+010  3.6500503e+010 1.28e+003 6.81e-001 1.56e+003 7.46e-002
  92  3.6496135e+010  3.6500026e+010 1.26e+003 6.06e-001 1.40e+003 8.54e-002
  93  3.6496104e+010  3.6499279e+010 1.21e+003 5.46e-001 1.15e+003 1.09e-001
  94  3.6495888e+010  3.6497500e+010 7.24e+002 2.24e-001 5.72e+002 2.74e-001
  95  3.6495863e+010  3.6497231e+010 6.61e+002 2.01e-001 4.89e+002 3.31e-001
  96  3.6495763e+010  3.6496755e+010 4.16e+002 1.17e-001 3.45e+002 5.12e-001
  97  3.6495703e+010  3.6496125e+010 2.81e+002 7.57e-002 1.57e+002 1.35e+000
  98  3.6495653e+010  3.6496042e+010 1.77e+002 4.66e-002 1.34e+002 1.63e+000
  99  3.6495628e+010  3.6495770e+010 1.21e+002 3.17e-002 5.61e+001 4.88e+000
 100  3.6495582e+010  3.6495664e+010 3.37e+001 8.71e-003 2.72e+001 1.06e+001
 101  3.6495566e+010  3.6495571e+010 1.92e+000 4.90e-004 1.67e+000 1.76e+002
 102  3.6495565e+010  3.6495565e+010 9.61e-002 2.46e-005 8.42e-002 3.50e+003
 103  3.6495565e+010  3.6495565e+010 3.39e+001 1.25e-006 4.31e-003 6.89e+004
Barrier time = 54.86 sec. (17526.41 ticks)
Parallel mode: deterministic, using up to 4 threads for concurrent optimization.

Dual crossover.
  Dual:  Fixing 171691 variables.
   171690 DMoves:  Infeasibility 2.64310417e-004  Objective 3.64955647e+010
   170811 DMoves:  Infeasibility 2.64310440e-004  Objective 3.64955647e+010
   168825 DMoves:  Infeasibility 2.64310624e-004  Objective 3.64955647e+010
   168103 DMoves:  Infeasibility 2.64310637e-004  Objective 3.64955647e+010
   166921 DMoves:  Infeasibility 2.64310637e-004  Objective 3.64955647e+010
   166007 DMoves:  Infeasibility 2.64310633e-004  Objective 3.64955647e+010
   165237 DMoves:  Infeasibility 2.64310633e-004  Objective 3.64955647e+010
   155422 DMoves:  Infeasibility 2.64310597e-004  Objective 3.64955647e+010
   151621 DMoves:  Infeasibility 2.64310593e-004  Objective 3.64955647e+010
   149830 DMoves:  Infeasibility 2.64310583e-004  Objective 3.64955647e+010
   146619 DMoves:  Infeasibility 2.64310574e-004  Objective 3.64955647e+010
   130859 DMoves:  Infeasibility 2.64310578e-004  Objective 3.64955647e+010
   125539 DMoves:  Infeasibility 2.64310592e-004  Objective 3.64955647e+010
   122351 DMoves:  Infeasibility 2.64310573e-004  Objective 3.64955647e+010
   118905 DMoves:  Infeasibility 2.64310573e-004  Objective 3.64955647e+010
   110004 DMoves:  Infeasibility 2.64310571e-004  Objective 3.64955647e+010
   103404 DMoves:  Infeasibility 2.64310586e-004  Objective 3.64955647e+010
    79525 DMoves:  Infeasibility 2.64310531e-004  Objective 3.64955647e+010
    73046 DMoves:  Infeasibility 2.64310518e-004  Objective 3.64955647e+010
    70028 DMoves:  Infeasibility 2.64310509e-004  Objective 3.64955647e+010
    66026 DMoves:  Infeasibility 2.64310514e-004  Objective 3.64955647e+010
    57962 DMoves:  Infeasibility 2.64310507e-004  Objective 3.64955647e+010
    50935 DMoves:  Infeasibility 2.64310506e-004  Objective 3.64955647e+010
    42160 DMoves:  Infeasibility 2.64310499e-004  Objective 3.64955647e+010
    34061 DMoves:  Infeasibility 2.64310499e-004  Objective 3.64955647e+010
        4 DMoves:  Infeasibility 5.32871077e-011  Objective 3.64955647e+010
        0 DMoves:  Infeasibility 5.32871077e-011  Objective 3.64955647e+010
  Dual:  Pushed 138647, exchanged 33044.
  Primal:  Fixing 6584 variables.
     6583 PMoves:  Infeasibility 3.23599865e-009  Objective 3.64955647e+010
     4785 PMoves:  Infeasibility 3.12683545e-009  Objective 3.64955647e+010
     2373 PMoves:  Infeasibility 3.17861527e-009  Objective 3.64955647e+010
        0 PMoves:  Infeasibility 3.64065279e-009  Objective 3.64955647e+010
  Primal:  Pushed 1283, exchanged 5301.
Reinitializing dual norms . . .

Dual simplex solved model.

Total crossover time = 18.30 sec. (11785.18 ticks)

Total time on 4 threads = 74.30 sec. (29858.82 ticks)
LP status(1): optimal
Cplex Time: 74.30sec (det. 29859.98 ticks)

Optimal solution found.
Objective : 36495564680.715462

--- Scenario scen1:     Records read:    2
--- Solution statistics for scenario scen1
---   Solver Status    1 Normal Completion         
---   Model Status     1 Optimal                   
---   Objective Value  36495564680.7155
---   Resource Usage   75219
---   Total Time (ms)  75406
--- Restarting execution
--- DIETER.gms(3223) 235 Mb
--- Reading solution for model DIETER
--- Executing after solve: elapsed 0:03:08.084
--- DIETER.gms(3223) 235 Mb
---
--- scattering and reading gdx file
---
--- DIETER.gms(3223) 236 Mb
--- marginal Id = con5a_minRES maps to marginal_con5a
--- marginal Id = con1a_bal maps to marginal_con1a
--- level    Id = Z maps to lev_Z
--- level    Id = G_L maps to lev_G_L
--- level    Id = G_UP maps to lev_G_UP
--- level    Id = G_DO maps to lev_G_DO
--- level    Id = G_RES maps to lev_G_RES
--- level    Id = CU maps to lev_CU
--- level    Id = STO_IN maps to lev_STO_IN
--- level    Id = STO_OUT maps to lev_STO_OUT
--- level    Id = STO_L maps to lev_STO_L
--- level    Id = N_TECH maps to lev_N_TECH
--- level    Id = N_STO_E maps to lev_N_STO_E
--- level    Id = N_STO_P maps to lev_N_STO_P
--- level    Id = NTC maps to lev_NTC
--- level    Id = F maps to lev_F
--- level    Id = RSVR_OUT maps to lev_RSVR_OUT
--- level    Id = RSVR_L maps to lev_RSVR_L
--- level    Id = N_RSVR_E maps to lev_N_RSVR_E
--- level    Id = N_RSVR_P maps to lev_N_RSVR_P
--- level    Id = CU_PRO maps to lev_CU_PRO
--- level    Id = G_MARKET_PRO2M maps to lev_G_MARKET_PRO2M
--- level    Id = G_MARKET_M2PRO maps to lev_G_MARKET_M2PRO
--- level    Id = G_RES_PRO maps to lev_G_RES_PRO
--- level    Id = STO_IN_PRO2PRO maps to lev_STO_IN_PRO2PRO
--- level    Id = STO_IN_PRO2M maps to lev_STO_IN_PRO2M
--- level    Id = STO_IN_M2PRO maps to lev_STO_IN_M2PRO
--- level    Id = STO_IN_M2M maps to lev_STO_IN_M2M
--- level    Id = STO_OUT_PRO2PRO maps to lev_STO_OUT_PRO2PRO
--- level    Id = STO_OUT_PRO2M maps to lev_STO_OUT_PRO2M
--- level    Id = STO_OUT_M2PRO maps to lev_STO_OUT_M2PRO
--- level    Id = STO_OUT_M2M maps to lev_STO_OUT_M2M
--- level    Id = STO_L_PRO maps to lev_STO_L_PRO
--- level    Id = STO_L_PRO2PRO maps to lev_STO_L_PRO2PRO
--- level    Id = STO_L_PRO2M maps to lev_STO_L_PRO2M
--- level    Id = STO_L_M2PRO maps to lev_STO_L_M2PRO
--- level    Id = STO_L_M2M maps to lev_STO_L_M2M
--- level    Id = N_STO_E_PRO maps to lev_N_STO_E_PRO
--- level    Id = N_STO_P_PRO maps to lev_N_STO_P_PRO
--- level    Id = N_RES_PRO maps to lev_N_RES_PRO
--- level    Id = G_INFES maps to lev_G_INFES
--- DIETER.gms(3223) 236 Mb
--- GDXin=C:\Users\Lenovo\Documents\GitHub\prosumage\Code\Prosumage_Opt\Dieter_Module\Original\225a\scenrep.dat
--- Scatter finished in 109 ms
--- DIETER.gms(4641) 239 Mb
--- GDX File C:\Users\Lenovo\Documents\GitHub\prosumage\Code\Prosumage_Opt\Dieter_Module\Original\results.gdx
--- GDX File C:\Users\Lenovo\Documents\GitHub\prosumage\Code\Prosumage_Opt\Dieter_Module\Original\test.gdx
*** Status: Normal completion
--- Job DIETER.gms Stop 11/21/18 09:44:05 elapsed 0:03:10.674
